6556.44
0 1 2 3 4 5 6 7 8 9 10 11 12 13 14 18 0
0 15 16 17 19 20 21 22 23 24 26 27 34 37 0
0 25 28 29 30 31 32 38 39 42 43 51 0
0 33 35 36 40 41 47 57 58 63 0
0 44 45 46 48 49 50 52 53 54 56 61 67 73 85 0
0 55 59 60 64 66 68 69 70 71 76 77 80 0
0 62 65 74 75 78 81 91 94 98 99 0
0 72 79 82 83 84 103 104 106 0
0 86 87 88 89 90 92 93 95 108 109 0
0 96 97 100 101 110 115 122 124 0
0 105 107 111 112 113 114 116 119 125 0
0 117 118 120 121 123 126 129 130 131 132 134 0
0 127 128 133 135 136 140 144 0
0 137 138 139 141 142 143 145 146 147 149 150 102 0
0 148 0
